p cnf 14 27
14 -13 11 0
14 12 7 0
14 -11 -6 0
-14 -10 -4 0
-14 -8 7 0
-14 7 -4 0
14 -7 -2 0
13 12 1 0
-13 9 -4 0
-13 9 -3 0
13 -5 -2 0
12 -10 -6 0
12 10 -4 0
-12 -10 -3 0
-12 -9 -8 0
12 8 -2 0
-12 -4 2 0
11 -7 6 0
10 6 3 0
10 -6 -2 0
-9 -7 -4 0
-9 -6 2 0
8 -7 -5 0
-8 6 1 0
8 -3 -2 0
-7 6 3 0
6 5 -4 0
